; PUSH cw_1 DUP1 SLOAD DUP3 SWAP4 SWAP3 => SWAP1 PUSH cw_1 DUP1 SLOAD DUP4
(set-option :produce-proofs true)
; 
(set-info :status unknown)
(declare-fun storage_t ((_ BitVec 256) (_ BitVec 256) (_ BitVec 256) (_ BitVec 256) Int (_ BitVec 256)) (_ BitVec 256))
(declare-fun w_1 () (_ BitVec 256))
(declare-fun storage_s ((_ BitVec 256) (_ BitVec 256) (_ BitVec 256) (_ BitVec 256) Int (_ BitVec 256)) (_ BitVec 256))
(declare-fun exc_halt_t (Int) Bool)
(declare-fun exc_halt_s (Int) Bool)
(declare-fun sc_t (Int) (_ BitVec 6))
(declare-fun stack_t ((_ BitVec 256) (_ BitVec 256) (_ BitVec 256) (_ BitVec 256) Int (_ BitVec 6)) (_ BitVec 256))
(declare-fun stack_s ((_ BitVec 256) (_ BitVec 256) (_ BitVec 256) (_ BitVec 256) Int (_ BitVec 6)) (_ BitVec 256))
(declare-fun sc_s (Int) (_ BitVec 6))
(declare-fun used_gas_t ((_ BitVec 256) (_ BitVec 256) (_ BitVec 256) (_ BitVec 256) Int) Int)
(declare-fun used_gas_s ((_ BitVec 256) (_ BitVec 256) (_ BitVec 256) (_ BitVec 256) Int) Int)
(assert
 (exists ((x_0 (_ BitVec 256)) (x_1 (_ BitVec 256)) (x_SLOAD_0 (_ BitVec 256)) )(let (($x883 (forall ((w (_ BitVec 256)) )(let ((?x3505 (storage_t x_0 x_1 x_SLOAD_0 w_1 5 w)))
 (let ((?x5205 (storage_s x_0 x_1 x_SLOAD_0 w_1 6 w)))
 (= ?x5205 ?x3505))))
 ))
 (let (($x886 (exc_halt_t 5)))
 (let (($x772 (exc_halt_s 6)))
 (let (($x889 (= $x772 $x886)))
 (let (($x6410 (forall ((n (_ BitVec 6)) )(let ((?x919 (sc_t 5)))
 (let (($x6631 (bvsle ?x919 n)))
 (let ((?x7060 (stack_t x_0 x_1 x_SLOAD_0 w_1 5 n)))
 (let ((?x1600 (stack_s x_0 x_1 x_SLOAD_0 w_1 6 n)))
 (let (($x991 (= ?x1600 ?x7060)))
 (or $x991 $x6631)))))))
 ))
 (let ((?x919 (sc_t 5)))
 (let ((?x926 (sc_s 6)))
 (let (($x929 (= ?x926 ?x919)))
 (let (($x6403 (not (and $x929 $x6410 $x889 $x883))))
 (let ((?x1465 (used_gas_t x_0 x_1 x_SLOAD_0 w_1 0)))
 (let ((?x10465 (used_gas_s x_0 x_1 x_SLOAD_0 w_1 0)))
 (let (($x6032 (= ?x10465 ?x1465)))
 (let (($x9531 (forall ((w (_ BitVec 256)) )(let ((?x973 (storage_t x_0 x_1 x_SLOAD_0 w_1 0 w)))
 (let ((?x4968 (storage_s x_0 x_1 x_SLOAD_0 w_1 0 w)))
 (= ?x4968 ?x973))))
 ))
 (let (($x56 (exc_halt_t 0)))
 (let (($x57 (exc_halt_s 0)))
 (let (($x58 (= $x57 $x56)))
 (let (($x10065 (forall ((n (_ BitVec 6)) )(let ((?x6945 (stack_t x_0 x_1 x_SLOAD_0 w_1 0 n)))
 (let ((?x5360 (stack_s x_0 x_1 x_SLOAD_0 w_1 0 n)))
 (let (($x6474 (= ?x5360 ?x6945)))
 (let ((?x63 (sc_t 0)))
 (let (($x515 (bvsle ?x63 n)))
 (or $x515 $x6474)))))))
 ))
 (let ((?x63 (sc_t 0)))
 (let ((?x72 (sc_s 0)))
 (let (($x73 (= ?x72 ?x63)))
 (let (($x3723 (exc_halt_t 4)))
 (let (($x1999 (or $x3723 (not (= ((_ extract 6 6) (bvadd (_ bv1 7) (concat (_ bv0 1) (sc_t 4)))) (_ bv0 1))) (not (bvsle (_ bv0 6) (bvadd (_ bv60 6) (sc_t 4)))))))
 (let (($x4170 (forall ((w (_ BitVec 256)) )(let ((?x6344 (storage_t x_0 x_1 x_SLOAD_0 w_1 4 w)))
 (let ((?x3505 (storage_t x_0 x_1 x_SLOAD_0 w_1 5 w)))
 (= ?x3505 ?x6344))))
 ))
 (let (($x10011 (forall ((n (_ BitVec 6)) )(let ((?x3611 (stack_t x_0 x_1 x_SLOAD_0 w_1 4 n)))
 (let ((?x7060 (stack_t x_0 x_1 x_SLOAD_0 w_1 5 n)))
 (let (($x4143 (= ?x7060 ?x3611)))
 (or $x4143 (bvsle (bvadd (_ bv60 6) (sc_t 4)) n))))))
 ))
 (let (($x4283 (= (used_gas_t x_0 x_1 x_SLOAD_0 w_1 5) (+ 3 (used_gas_t x_0 x_1 x_SLOAD_0 w_1 4)))))
 (let ((?x3757 (sc_t 4)))
 (let ((?x3080 (bvadd (_ bv63 6) ?x3757)))
 (let ((?x6486 (stack_t x_0 x_1 x_SLOAD_0 w_1 4 ?x3080)))
 (let ((?x7246 (bvadd (_ bv62 6) ?x3757)))
 (let ((?x9826 (stack_t x_0 x_1 x_SLOAD_0 w_1 4 ?x7246)))
 (let ((?x6076 (bvadd (_ bv61 6) ?x3757)))
 (let ((?x7845 (stack_t x_0 x_1 x_SLOAD_0 w_1 4 ?x6076)))
 (let ((?x178 (bvadd (_ bv60 6) ?x3757)))
 (let ((?x871 (stack_t x_0 x_1 x_SLOAD_0 w_1 4 ?x178)))
 (let (($x6276 (= $x3723 (or (exc_halt_t 3) (not (bvsle (_ bv0 6) (bvadd (_ bv63 6) (sc_t 3))))))))
 (let (($x3974 (forall ((w (_ BitVec 256)) )(let ((?x5875 (storage_t x_0 x_1 x_SLOAD_0 w_1 3 w)))
 (let ((?x6344 (storage_t x_0 x_1 x_SLOAD_0 w_1 4 w)))
 (= ?x6344 ?x5875))))
 ))
 (let (($x687 (forall ((n (_ BitVec 6)) )(let ((?x5384 (stack_t x_0 x_1 x_SLOAD_0 w_1 3 n)))
 (let ((?x3611 (stack_t x_0 x_1 x_SLOAD_0 w_1 4 n)))
 (let (($x9950 (= ?x3611 ?x5384)))
 (or (bvsle (bvadd (_ bv63 6) (sc_t 3)) n) $x9950)))))
 ))
 (let ((?x649 (sc_t 3)))
 (let (($x3156 (= ?x3757 ?x649)))
 (let ((?x9103 (used_gas_t x_0 x_1 x_SLOAD_0 w_1 4)))
 (let ((?x1425 (bvadd (_ bv63 6) ?x649)))
 (let ((?x585 (stack_t x_0 x_1 x_SLOAD_0 w_1 3 ?x1425)))
 (let (($x5282 (not (bvsle (_ bv0 6) (bvadd (_ bv63 6) (sc_t 2))))))
 (let (($x4677 (not (= ((_ extract 6 6) (bvadd (_ bv1 7) (concat (_ bv0 1) (sc_t 2)))) (_ bv0 1)))))
 (let (($x903 (exc_halt_t 2)))
 (let (($x1941 (exc_halt_t 3)))
 (let (($x4168 (forall ((w (_ BitVec 256)) )(let ((?x2440 (storage_t x_0 x_1 x_SLOAD_0 w_1 2 w)))
 (let ((?x5875 (storage_t x_0 x_1 x_SLOAD_0 w_1 3 w)))
 (= ?x5875 ?x2440))))
 ))
 (let (($x7676 (forall ((n (_ BitVec 6)) )(let ((?x4056 (sc_t 2)))
 (let ((?x4110 (bvadd (_ bv63 6) ?x4056)))
 (let (($x6024 (bvsle ?x4110 n)))
 (let ((?x7404 (stack_t x_0 x_1 x_SLOAD_0 w_1 2 n)))
 (let ((?x5384 (stack_t x_0 x_1 x_SLOAD_0 w_1 3 n)))
 (let (($x18 (= ?x5384 ?x7404)))
 (or $x18 $x6024))))))))
 ))
 (let (($x6128 (= ?x649 (bvadd (_ bv1 6) (sc_t 2)))))
 (let ((?x2214 (used_gas_t x_0 x_1 x_SLOAD_0 w_1 3)))
 (let (($x10670 (= ?x2214 (+ 3 (used_gas_t x_0 x_1 x_SLOAD_0 w_1 2)))))
 (let ((?x4056 (sc_t 2)))
 (let ((?x4110 (bvadd (_ bv63 6) ?x4056)))
 (let ((?x8460 (stack_t x_0 x_1 x_SLOAD_0 w_1 2 ?x4110)))
 (let (($x6665 (= (stack_t x_0 x_1 x_SLOAD_0 w_1 3 ?x4110) ?x8460)))
 (let (($x487 (not (= ((_ extract 6 6) (bvadd (_ bv1 7) (concat (_ bv0 1) (sc_t 1)))) (_ bv0 1)))))
 (let (($x1920 (exc_halt_t 1)))
 (let (($x8613 (= $x903 (or $x1920 $x487))))
 (let (($x10193 (forall ((w (_ BitVec 256)) )(let ((?x5920 (storage_t x_0 x_1 x_SLOAD_0 w_1 1 w)))
 (let ((?x2440 (storage_t x_0 x_1 x_SLOAD_0 w_1 2 w)))
 (= ?x2440 ?x5920))))
 ))
 (let (($x10697 (forall ((n (_ BitVec 6)) )(let ((?x4023 (sc_t 1)))
 (let (($x10559 (bvsle ?x4023 n)))
 (let ((?x5873 (stack_t x_0 x_1 x_SLOAD_0 w_1 1 n)))
 (let ((?x7404 (stack_t x_0 x_1 x_SLOAD_0 w_1 2 n)))
 (let (($x5215 (= ?x7404 ?x5873)))
 (or $x5215 $x10559)))))))
 ))
 (let (($x7940 (= ?x4056 (bvadd (_ bv1 6) (sc_t 1)))))
 (let ((?x3143 (used_gas_t x_0 x_1 x_SLOAD_0 w_1 2)))
 (let (($x4319 (= ?x3143 (+ 3 (used_gas_t x_0 x_1 x_SLOAD_0 w_1 1)))))
 (let (($x656 (= $x1920 (or $x56 (not (bvsle (_ bv0 6) (bvadd (_ bv62 6) ?x63)))))))
 (let (($x2018 (forall ((w (_ BitVec 256)) )(let ((?x973 (storage_t x_0 x_1 x_SLOAD_0 w_1 0 w)))
 (let ((?x5920 (storage_t x_0 x_1 x_SLOAD_0 w_1 1 w)))
 (= ?x5920 ?x973))))
 ))
 (let (($x8989 (forall ((n (_ BitVec 6)) )(let ((?x6945 (stack_t x_0 x_1 x_SLOAD_0 w_1 0 n)))
 (let ((?x5873 (stack_t x_0 x_1 x_SLOAD_0 w_1 1 n)))
 (let (($x10603 (= ?x5873 ?x6945)))
 (let ((?x63 (sc_t 0)))
 (let ((?x4382 (bvadd (_ bv62 6) ?x63)))
 (let (($x4553 (bvsle ?x4382 n)))
 (or $x4553 $x10603))))))))
 ))
 (let ((?x4023 (sc_t 1)))
 (let (($x4632 (= ?x4023 ?x63)))
 (let ((?x1984 (used_gas_t x_0 x_1 x_SLOAD_0 w_1 1)))
 (let (($x787 (= ?x1984 (+ 3 ?x1465))))
 (let ((?x3913 (bvadd (_ bv62 6) ?x4023)))
 (let ((?x9812 (stack_t x_0 x_1 x_SLOAD_0 w_1 1 ?x3913)))
 (let ((?x10675 (bvadd (_ bv63 6) ?x4023)))
 (let ((?x702 (stack_t x_0 x_1 x_SLOAD_0 w_1 1 ?x10675)))
 (let (($x819 (= $x772 (or (exc_halt_s 5) (not (bvsle (_ bv0 6) (bvadd (_ bv60 6) (sc_s 5))))))))
 (let (($x9804 (forall ((w (_ BitVec 256)) )(let ((?x7045 (storage_s x_0 x_1 x_SLOAD_0 w_1 5 w)))
 (let ((?x5205 (storage_s x_0 x_1 x_SLOAD_0 w_1 6 w)))
 (= ?x5205 ?x7045))))
 ))
 (let (($x7089 (forall ((n (_ BitVec 6)) )(let ((?x5777 (stack_s x_0 x_1 x_SLOAD_0 w_1 5 n)))
 (let ((?x1600 (stack_s x_0 x_1 x_SLOAD_0 w_1 6 n)))
 (let (($x5065 (= ?x1600 ?x5777)))
 (or $x5065 (bvsle (bvadd (_ bv60 6) (sc_s 5)) n))))))
 ))
 (let ((?x805 (sc_s 5)))
 (let (($x4623 (= ?x926 ?x805)))
 (let (($x1903 (= (used_gas_s x_0 x_1 x_SLOAD_0 w_1 6) (+ 3 (used_gas_s x_0 x_1 x_SLOAD_0 w_1 5)))))
 (let ((?x9654 (bvadd (_ bv62 6) ?x805)))
 (let ((?x4497 (stack_s x_0 x_1 x_SLOAD_0 w_1 5 ?x9654)))
 (let (($x5246 (= (stack_s x_0 x_1 x_SLOAD_0 w_1 6 (bvadd (_ bv62 6) ?x926)) ?x4497)))
 (let ((?x2778 (bvadd (_ bv61 6) ?x805)))
 (let ((?x2870 (stack_s x_0 x_1 x_SLOAD_0 w_1 5 ?x2778)))
 (let ((?x9340 (bvadd (_ bv61 6) ?x926)))
 (let ((?x11324 (stack_s x_0 x_1 x_SLOAD_0 w_1 6 ?x9340)))
 (let ((?x3307 (bvadd (_ bv63 6) ?x805)))
 (let ((?x10140 (stack_s x_0 x_1 x_SLOAD_0 w_1 5 ?x3307)))
 (let ((?x1869 (bvadd (_ bv60 6) ?x805)))
 (let ((?x7784 (stack_s x_0 x_1 x_SLOAD_0 w_1 5 ?x1869)))
 (let ((?x8805 (bvadd (_ bv63 6) ?x926)))
 (let ((?x4675 (stack_s x_0 x_1 x_SLOAD_0 w_1 6 ?x8805)))
 (let (($x3979 (exc_halt_s 5)))
 (let (($x532 (= $x3979 (or (exc_halt_s 4) (not (bvsle (_ bv0 6) (bvadd (_ bv59 6) (sc_s 4))))))))
 (let (($x10161 (forall ((w (_ BitVec 256)) )(let ((?x4315 (storage_s x_0 x_1 x_SLOAD_0 w_1 4 w)))
 (let ((?x7045 (storage_s x_0 x_1 x_SLOAD_0 w_1 5 w)))
 (= ?x7045 ?x4315))))
 ))
 (let (($x1521 (forall ((n (_ BitVec 6)) )(let ((?x5436 (stack_s x_0 x_1 x_SLOAD_0 w_1 4 n)))
 (let ((?x5777 (stack_s x_0 x_1 x_SLOAD_0 w_1 5 n)))
 (or (bvsle (bvadd (_ bv59 6) (sc_s 4)) n) (= ?x5777 ?x5436)))))
 ))
 (let ((?x4305 (sc_s 4)))
 (let (($x3983 (= ?x805 ?x4305)))
 (let ((?x7424 (used_gas_s x_0 x_1 x_SLOAD_0 w_1 5)))
 (let (($x6187 (= ?x7424 (+ 3 (used_gas_s x_0 x_1 x_SLOAD_0 w_1 4)))))
 (let ((?x4463 (bvadd (_ bv63 6) ?x4305)))
 (let ((?x9607 (stack_s x_0 x_1 x_SLOAD_0 w_1 4 ?x4463)))
 (let ((?x7420 (bvadd (_ bv59 6) ?x4305)))
 (let ((?x7900 (stack_s x_0 x_1 x_SLOAD_0 w_1 4 ?x7420)))
 (let (($x1820 (= ?x10140 ?x7900)))
 (let (($x11617 (not (bvsle (_ bv0 6) (bvadd (_ bv61 6) (sc_s 3))))))
 (let (($x7122 (not (= ((_ extract 6 6) (bvadd (_ bv1 7) (concat (_ bv0 1) (sc_s 3)))) (_ bv0 1)))))
 (let (($x292 (exc_halt_s 3)))
 (let (($x64 (exc_halt_s 4)))
 (let (($x9739 (= $x64 (or $x292 $x7122 $x11617))))
 (let (($x2303 (forall ((w (_ BitVec 256)) )(let ((?x6139 (storage_s x_0 x_1 x_SLOAD_0 w_1 3 w)))
 (let ((?x4315 (storage_s x_0 x_1 x_SLOAD_0 w_1 4 w)))
 (= ?x4315 ?x6139))))
 ))
 (let (($x3345 (forall ((n (_ BitVec 6)) )(let ((?x275 (sc_s 3)))
 (let ((?x10647 (bvadd (_ bv61 6) ?x275)))
 (let (($x11352 (bvsle ?x10647 n)))
 (let ((?x10417 (stack_s x_0 x_1 x_SLOAD_0 w_1 3 n)))
 (let ((?x5436 (stack_s x_0 x_1 x_SLOAD_0 w_1 4 n)))
 (or (= ?x5436 ?x10417) $x11352)))))))
 ))
 (let (($x3882 (= ?x4305 (bvadd (_ bv1 6) (sc_s 3)))))
 (let ((?x8828 (used_gas_s x_0 x_1 x_SLOAD_0 w_1 4)))
 (let (($x6319 (= ?x8828 (+ 3 (used_gas_s x_0 x_1 x_SLOAD_0 w_1 3)))))
 (let ((?x275 (sc_s 3)))
 (let ((?x7729 (bvadd (_ bv63 6) ?x275)))
 (let ((?x6254 (stack_s x_0 x_1 x_SLOAD_0 w_1 3 ?x7729)))
 (let (($x4696 (= (stack_s x_0 x_1 x_SLOAD_0 w_1 4 ?x7729) ?x6254)))
 (let ((?x10568 (bvadd (_ bv62 6) ?x275)))
 (let ((?x10126 (stack_s x_0 x_1 x_SLOAD_0 w_1 3 ?x10568)))
 (let (($x10676 (= (stack_s x_0 x_1 x_SLOAD_0 w_1 4 ?x10568) ?x10126)))
 (let ((?x10647 (bvadd (_ bv61 6) ?x275)))
 (let ((?x6456 (stack_s x_0 x_1 x_SLOAD_0 w_1 3 ?x10647)))
 (let (($x7751 (= (stack_s x_0 x_1 x_SLOAD_0 w_1 4 ?x10647) ?x6456)))
 (let (($x5478 (= ?x9607 ?x6456)))
 (let (($x2219 (= $x292 (or (exc_halt_s 2) (not (bvsle (_ bv0 6) (bvadd (_ bv63 6) (sc_s 2))))))))
 (let (($x2836 (forall ((w (_ BitVec 256)) )(let ((?x5293 (storage_s x_0 x_1 x_SLOAD_0 w_1 2 w)))
 (let ((?x6139 (storage_s x_0 x_1 x_SLOAD_0 w_1 3 w)))
 (= ?x6139 ?x5293))))
 ))
 (let (($x1081 (forall ((n (_ BitVec 6)) )(let ((?x569 (stack_s x_0 x_1 x_SLOAD_0 w_1 2 n)))
 (let ((?x10417 (stack_s x_0 x_1 x_SLOAD_0 w_1 3 n)))
 (let (($x5239 (= ?x10417 ?x569)))
 (let ((?x218 (sc_s 2)))
 (let ((?x5628 (bvadd (_ bv63 6) ?x218)))
 (let (($x3871 (bvsle ?x5628 n)))
 (or $x3871 $x5239))))))))
 ))
 (let ((?x218 (sc_s 2)))
 (let (($x3321 (= ?x275 ?x218)))
 (let ((?x9972 (used_gas_s x_0 x_1 x_SLOAD_0 w_1 3)))
 (let ((?x5628 (bvadd (_ bv63 6) ?x218)))
 (let ((?x3454 (stack_s x_0 x_1 x_SLOAD_0 w_1 2 ?x5628)))
 (let (($x5557 (not (bvsle (_ bv0 6) (bvadd (_ bv63 6) (sc_s 1))))))
 (let (($x2630 (not (= ((_ extract 6 6) (bvadd (_ bv1 7) (concat (_ bv0 1) (sc_s 1)))) (_ bv0 1)))))
 (let (($x189 (exc_halt_s 1)))
 (let (($x247 (exc_halt_s 2)))
 (let (($x11591 (= $x247 (or $x189 $x2630 $x5557))))
 (let (($x10451 (forall ((w (_ BitVec 256)) )(let ((?x5083 (storage_s x_0 x_1 x_SLOAD_0 w_1 1 w)))
 (let ((?x5293 (storage_s x_0 x_1 x_SLOAD_0 w_1 2 w)))
 (= ?x5293 ?x5083))))
 ))
 (let (($x8948 (forall ((n (_ BitVec 6)) )(let ((?x154 (sc_s 1)))
 (let ((?x4815 (bvadd (_ bv63 6) ?x154)))
 (let (($x8860 (bvsle ?x4815 n)))
 (let ((?x8014 (stack_s x_0 x_1 x_SLOAD_0 w_1 1 n)))
 (let ((?x569 (stack_s x_0 x_1 x_SLOAD_0 w_1 2 n)))
 (let (($x3903 (= ?x569 ?x8014)))
 (or $x3903 $x8860))))))))
 ))
 (let (($x10762 (= ?x218 (bvadd (_ bv1 6) (sc_s 1)))))
 (let ((?x5659 (used_gas_s x_0 x_1 x_SLOAD_0 w_1 2)))
 (let (($x6156 (= ?x5659 (+ 3 (used_gas_s x_0 x_1 x_SLOAD_0 w_1 1)))))
 (let ((?x154 (sc_s 1)))
 (let ((?x4815 (bvadd (_ bv63 6) ?x154)))
 (let ((?x7087 (stack_s x_0 x_1 x_SLOAD_0 w_1 1 ?x4815)))
 (let (($x2279 (= $x189 (or $x57 (not (= ((_ extract 6 6) (bvadd (_ bv1 7) (concat (_ bv0 1) ?x72))) (_ bv0 1)))))))
 (let (($x10481 (forall ((w (_ BitVec 256)) )(let ((?x4968 (storage_s x_0 x_1 x_SLOAD_0 w_1 0 w)))
 (let ((?x5083 (storage_s x_0 x_1 x_SLOAD_0 w_1 1 w)))
 (= ?x5083 ?x4968))))
 ))
 (let (($x4381 (forall ((n (_ BitVec 6)) )(let ((?x5360 (stack_s x_0 x_1 x_SLOAD_0 w_1 0 n)))
 (let ((?x8014 (stack_s x_0 x_1 x_SLOAD_0 w_1 1 n)))
 (let (($x6184 (= ?x8014 ?x5360)))
 (let ((?x72 (sc_s 0)))
 (let (($x2895 (bvsle ?x72 n)))
 (or $x2895 $x6184)))))))
 ))
 (let (($x1866 (= ?x154 (bvadd (_ bv1 6) ?x72))))
 (let ((?x3713 (used_gas_s x_0 x_1 x_SLOAD_0 w_1 1)))
 (let (($x10804 (= ?x3713 (+ 3 ?x10465))))
 (let (($x645 (forall ((w (_ BitVec 256)) )(let (($x782 (= w (stack_s x_0 x_1 x_SLOAD_0 w_1 2 (bvadd (_ bv63 6) (sc_s 2))))))
 (let ((?x4968 (storage_s x_0 x_1 x_SLOAD_0 w_1 0 w)))
 (= ?x4968 (ite $x782 x_SLOAD_0 (_ bv0 256))))))
 ))
 (let (($x6589 (= ?x10465 0)))
 (let (($x2460 (not $x57)))
 (let (($x166 (= (stack_s x_0 x_1 x_SLOAD_0 w_1 0 (_ bv1 6)) x_1)))
 (let (($x10495 (= (stack_s x_0 x_1 x_SLOAD_0 w_1 0 (_ bv0 6)) x_0)))
 (let (($x7626 (= ?x72 (_ bv2 6))))
 (and $x7626 $x10495 $x166 $x2460 $x6589 $x645 (= (stack_s x_0 x_1 x_SLOAD_0 w_1 1 ?x72) w_1) $x10804 $x1866 $x4381 $x10481 $x2279 (= ?x3454 ?x7087) (= (stack_s x_0 x_1 x_SLOAD_0 w_1 2 ?x4815) ?x7087) $x6156 $x10762 $x8948 $x10451 $x11591 (= ?x6254 (storage_s x_0 x_1 x_SLOAD_0 w_1 2 ?x3454)) (= ?x9972 (+ 200 ?x5659)) $x3321 $x1081 $x2836 $x2219 $x5478 $x7751 $x10676 $x4696 $x6319 $x3882 $x3345 $x2303 $x9739 $x1820 (= (stack_s x_0 x_1 x_SLOAD_0 w_1 5 (bvadd (_ bv59 6) ?x805)) ?x9607) (= ?x7784 (stack_s x_0 x_1 x_SLOAD_0 w_1 4 (bvadd (_ bv60 6) ?x4305))) (= ?x2870 (stack_s x_0 x_1 x_SLOAD_0 w_1 4 (bvadd (_ bv61 6) ?x4305))) (= ?x4497 (stack_s x_0 x_1 x_SLOAD_0 w_1 4 (bvadd (_ bv62 6) ?x4305))) $x6187 $x3983 $x1521 $x10161 $x532 (= ?x4675 ?x7784) (= (stack_s x_0 x_1 x_SLOAD_0 w_1 6 (bvadd (_ bv60 6) ?x926)) ?x10140) (= ?x11324 ?x2870) $x5246 $x1903 $x4623 $x7089 $x9804 $x819 (= ?x702 (stack_t x_0 x_1 x_SLOAD_0 w_1 0 (bvadd (_ bv62 6) ?x63))) (= ?x9812 (stack_t x_0 x_1 x_SLOAD_0 w_1 0 (bvadd (_ bv63 6) ?x63))) $x787 $x4632 $x8989 $x2018 $x656 (= (stack_t x_0 x_1 x_SLOAD_0 w_1 2 ?x4023) w_1) $x4319 $x7940 $x10697 $x10193 $x8613 (= ?x585 ?x8460) $x6665 $x10670 $x6128 $x7676 $x4168 (= $x1941 (or $x903 $x4677 $x5282)) (= ?x6486 (storage_t x_0 x_1 x_SLOAD_0 w_1 3 ?x585)) (= ?x9103 (+ 200 ?x2214)) $x3156 $x687 $x3974 $x6276 (= (stack_t x_0 x_1 x_SLOAD_0 w_1 5 (bvadd (_ bv63 6) ?x919)) ?x871) (= (stack_t x_0 x_1 x_SLOAD_0 w_1 5 ?x178) ?x871) (= (stack_t x_0 x_1 x_SLOAD_0 w_1 5 ?x6076) ?x7845) (= (stack_t x_0 x_1 x_SLOAD_0 w_1 5 ?x7246) ?x9826) (= (stack_t x_0 x_1 x_SLOAD_0 w_1 5 ?x3080) ?x6486) $x4283 (= ?x919 (bvadd (_ bv1 6) ?x3757)) $x10011 $x4170 (= $x886 $x1999) $x73 $x10065 $x58 $x9531 $x6032 $x6403))))))))))))))))))))))))))))))))))))))))))))))))))))))))))))))))))))))))))))))))))))))))))))))))))))))))))))))))))))))))))))))))))))))))))))))))))))))))))))))))))
 )
(check-sat)
(get-proof)
